15
1 0 6
2 0 6
2 1 7
3 0 5
3 1 1
3 2 7
4 0 4
4 1 1
4 2 5
4 3 2
5 0 5
5 1 5
5 2 2
5 3 4
5 4 8
6 0 2
6 1 3
6 2 6
6 3 8
6 4 5
6 5 2
7 0 1
7 1 8
7 2 8
7 3 8
7 4 4
7 5 5
7 6 1
8 0 4
8 1 4
8 2 1
8 3 5
8 4 8
8 5 2
8 6 7
8 7 2
9 0 6
9 1 7
9 2 1
9 3 8
9 4 1
9 5 1
9 6 8
9 7 1
9 8 6
10 0 2
10 1 2
10 2 6
10 3 5
10 4 7
10 5 8
10 6 7
10 7 4
10 8 2
10 9 3
11 0 3
11 1 4
11 2 1
11 3 3
11 4 7
11 5 5
11 6 7
11 7 2
11 8 1
11 9 2
11 10 2
12 0 2
12 1 2
12 2 7
12 3 8
12 4 7
12 5 3
12 6 7
12 7 2
12 8 5
12 9 6
12 10 6
12 11 2
13 0 5
13 1 4
13 2 7
13 3 1
13 4 4
13 5 3
13 6 6
13 7 6
13 8 5
13 9 1
13 10 5
13 11 1
13 12 3
14 0 6
14 1 7
14 2 8
14 3 1
14 4 7
14 5 8
14 6 1
14 7 3
14 8 1
14 9 1
14 10 5
14 11 5
14 12 5
14 13 3
